5
8
20
1 1.3 1.55 1.75 2.1
42 46 15 12 12 30 39 32 36 48 45 20 34 45 49 19 6 16 15 39 14 26 11 48 7 39 20 17 8 14 45 28 38 12 30 12 31 44 10 14 37 46 23 19 16 10 22 32 33 19 10 23 37 27 19 7 16 10 24 48 7 18 33 12 15 29 35 37 11 33 25 28 43 19 34 13 11 40 17 48 9 29 11 8 28 34 29 37 47 26 8 7 17 36 45 36 6 19 29 49 36 31 11 35 28 41 33 18 16 15 23 15 45 35 22 18 11 5 24 39 30 29 39 19 27 39 35 44 22 47 37 49 21 41 11 21 35 33 45 18 41 36 10 41 28 41 13 13 10 41 23 37 17 10 44 14 18 20 25 30 